4
6
5
10
21
14
4
13
10
7
15
5
7
14
18
9
0
0
10
17
16
17
4
0
13
1
19
11
6
2
11
7
2
22
8
15
19
5
1
0
9
19
16
10
12
17
5
4
21
18
13
3
4
3
12
7
8
5
2
11
19
18
14
15
6
3
3
18
21
21
18
17
7
20
3
12
16
9
1
16
17
7
14
1
4
14
20
5
10
16
8
16
5
13
16
1
9
12
5
3
2
8
6
9
19
15
20
8
10
11
18
13
14
9
1
11
14
15
17
12
6
0
2
22
6
used color num : 23
